C101

VEHICLE
NUMBER     CAPACITY
  30         100

CUSTOMER
CUST NO.  XCOORD.   YCOORD.    DEMAND   READY TIME  DUE DATE   SERVICE   TIME

0 82 76 0 0 100000 0
1 96 44 19 0 100000 0
2 50 5 21 0 100000 0
3 49 8 6 0 100000 0
4 13 7 19 0 100000 0
5 29 89 7 0 100000 0
6 58 30 12 0 100000 0
7 84 39 16 0 100000 0
8 14 24 6 0 100000 0
9 2 39 16 0 100000 0
10 3 82 8 0 100000 0
11 5 10 14 0 100000 0
12 98 52 21 0 100000 0
13 84 25 16 0 100000 0
14 61 59 3 0 100000 0
15 1 65 22 0 100000 0
16 88 51 18 0 100000 0
17 91 2 19 0 100000 0
18 19 32 1 0 100000 0
19 93 3 24 0 100000 0
20 50 93 8 0 100000 0
21 98 14 12 0 100000 0
22 5 42 4 0 100000 0
23 42 9 8 0 100000 0
24 61 62 24 0 100000 0
25 9 97 24 0 100000 0
26 80 55 2 0 100000 0
27 57 69 20 0 100000 0
28 23 15 15 0 100000 0
29 20 70 2 0 100000 0
30 85 60 14 0 100000 0
31 98 5 9 0 100000 0
